;---
; using 8-bit bit-vectors as characters
; check if regexA is not a subset of regexB
; regexA = ^((([A-Z]|[a-z]|[0-9])+[ ]+)|(([A-Z]|[a-z]|[0-9])+\-+)|(([A-Z]|[a-z]|[0-9])+\.+)|(([A-Z]|[a-z]|[0-9])+\++))*([A-Z]|[a-z]|[0-9])+@((\w+\-+)|(\w+\.))*\w{1,63}\.([A-Z]|[a-z]){2,6}\z
; regexB = ^((([A-Z]|[a-z]|[0-9]|\-|\.)+)@(([A-Z]|[a-z]|[0-9]|\-|\.)+)\.(([A-Z]|[a-z]){2,5}){1,25})+(((([A-Z]|[a-z]|[0-9]|\-|\.)+)@(([A-Z]|[a-z]|[0-9]|\-|\.)+)\.(([A-Z]|[a-z]){2,5}){1,25})+)*\z
;---
(set-info :status sat)
(set-option :print-success true)
(set-logic QF_BVRE)

(declare-const regexA (RegEx String))
(declare-const regexB (RegEx String))
(declare-const x String)

;witness: "9@Zu7zgYyA0787W99x8t99y8By540a888m51HYW79gpDJ986A8IdXZviAyRz2qI9_.xw"
(define-fun Witness () String (seq.++ "9" (seq.++ "@" (seq.++ "Z" (seq.++ "u" (seq.++ "7" (seq.++ "z" (seq.++ "g" (seq.++ "Y" (seq.++ "y" (seq.++ "A" (seq.++ "0" (seq.++ "7" (seq.++ "8" (seq.++ "7" (seq.++ "W" (seq.++ "9" (seq.++ "9" (seq.++ "x" (seq.++ "8" (seq.++ "t" (seq.++ "9" (seq.++ "9" (seq.++ "y" (seq.++ "8" (seq.++ "B" (seq.++ "y" (seq.++ "5" (seq.++ "4" (seq.++ "0" (seq.++ "a" (seq.++ "8" (seq.++ "8" (seq.++ "8" (seq.++ "m" (seq.++ "5" (seq.++ "1" (seq.++ "H" (seq.++ "Y" (seq.++ "W" (seq.++ "7" (seq.++ "9" (seq.++ "g" (seq.++ "p" (seq.++ "D" (seq.++ "J" (seq.++ "9" (seq.++ "8" (seq.++ "6" (seq.++ "A" (seq.++ "8" (seq.++ "I" (seq.++ "d" (seq.++ "X" (seq.++ "Z" (seq.++ "v" (seq.++ "i" (seq.++ "A" (seq.++ "y" (seq.++ "R" (seq.++ "z" (seq.++ "2" (seq.++ "q" (seq.++ "I" (seq.++ "9" (seq.++ "_" (seq.++ "." (seq.++ "x" (seq.++ "w" "")))))))))))))))))))))))))))))))))))))))))))))))))))))))))))))))))))))

(assert (= regexA (re.++ (str.to_re "")(re.++ (re.* (re.union (re.++ (re.+ (re.union (re.range "0" "9")(re.union (re.range "A" "Z") (re.range "a" "z")))) (re.+ (re.range " " " ")))(re.union (re.++ (re.+ (re.union (re.range "0" "9")(re.union (re.range "A" "Z") (re.range "a" "z")))) (re.+ (re.range "-" "-")))(re.union (re.++ (re.+ (re.union (re.range "0" "9")(re.union (re.range "A" "Z") (re.range "a" "z")))) (re.+ (re.range "." "."))) (re.++ (re.+ (re.union (re.range "0" "9")(re.union (re.range "A" "Z") (re.range "a" "z")))) (re.+ (re.range "+" "+")))))))(re.++ (re.+ (re.union (re.range "0" "9")(re.union (re.range "A" "Z") (re.range "a" "z"))))(re.++ (re.range "@" "@")(re.++ (re.* (re.union (re.++ (re.+ (re.union (re.range "0" "9")(re.union (re.range "A" "Z")(re.union (re.range "_" "_")(re.union (re.range "a" "z")(re.union (re.range "\xaa" "\xaa")(re.union (re.range "\xb5" "\xb5")(re.union (re.range "\xba" "\xba")(re.union (re.range "\xc0" "\xd6")(re.union (re.range "\xd8" "\xf6") (re.range "\xf8" "\xff"))))))))))) (re.+ (re.range "-" "-"))) (re.++ (re.+ (re.union (re.range "0" "9")(re.union (re.range "A" "Z")(re.union (re.range "_" "_")(re.union (re.range "a" "z")(re.union (re.range "\xaa" "\xaa")(re.union (re.range "\xb5" "\xb5")(re.union (re.range "\xba" "\xba")(re.union (re.range "\xc0" "\xd6")(re.union (re.range "\xd8" "\xf6") (re.range "\xf8" "\xff"))))))))))) (re.range "." "."))))(re.++ ((_ re.loop 1 63) (re.union (re.range "0" "9")(re.union (re.range "A" "Z")(re.union (re.range "_" "_")(re.union (re.range "a" "z")(re.union (re.range "\xaa" "\xaa")(re.union (re.range "\xb5" "\xb5")(re.union (re.range "\xba" "\xba")(re.union (re.range "\xc0" "\xd6")(re.union (re.range "\xd8" "\xf6") (re.range "\xf8" "\xff")))))))))))(re.++ (re.range "." ".")(re.++ ((_ re.loop 2 6) (re.union (re.range "A" "Z") (re.range "a" "z"))) (str.to_re "")))))))))))

(assert (= regexB (re.++ (str.to_re "")(re.++ (re.+ (re.++ (re.+ (re.union (re.range "-" ".")(re.union (re.range "0" "9")(re.union (re.range "A" "Z") (re.range "a" "z")))))(re.++ (re.range "@" "@")(re.++ (re.+ (re.union (re.range "-" ".")(re.union (re.range "0" "9")(re.union (re.range "A" "Z") (re.range "a" "z")))))(re.++ (re.range "." ".") ((_ re.loop 1 25) ((_ re.loop 2 5) (re.union (re.range "A" "Z") (re.range "a" "z")))))))))(re.++ (re.* (re.+ (re.++ (re.+ (re.union (re.range "-" ".")(re.union (re.range "0" "9")(re.union (re.range "A" "Z") (re.range "a" "z")))))(re.++ (re.range "@" "@")(re.++ (re.+ (re.union (re.range "-" ".")(re.union (re.range "0" "9")(re.union (re.range "A" "Z") (re.range "a" "z")))))(re.++ (re.range "." ".") ((_ re.loop 1 25) ((_ re.loop 2 5) (re.union (re.range "A" "Z") (re.range "a" "z")))))))))) (str.to_re ""))))))

;(assert (not (re-subset regexA regexB)))
;check that the difference is nonempty, contains some x
(assert (str.in_re x regexA))
(assert (not (str.in_re x regexB)))
;check also the concrete witness
(assert (str.in_re Witness regexA))
(assert (not (str.in_re Witness regexB)))
(check-sat)
